/*********************************************
 * OPL 12.6.0.0 Data
 * Author: Adrian Rodriguez Bazaga, Pau Rodriguez Esmerats
 * Creation Date: 21/11/2017 at 23:07:29
 *********************************************/

nNurses=145;
maxConsec=2;
maxPresence=7;
maxHours=5;
minHours=1;
demand= [38 39 59 56 39 59 56 40 44 21 6 5 7 6 9 5 4 3 3 1 26 48 24 44  ];
